root_relax = 440.0
QCR_time = 13.1205
opt = true
obj_val = 440.0
solved_time = 1.2728
explored_nodes = 1
nb_dom_cuts = 17370
urobi/QCR_QP_Dom/bcc56458.txt"
Set parameter Presolve to value 0
Set parameter AggFill to value -1
Set parameter Aggregate to value 0
Set parameter Heuristics to value 0
Set parameter LPWarmStart to value 0
Set parameter NLPHeur to value 0
Set parameter NoRelHeurTime to value 0
Set parameter PreCrush to value 0
Set parameter PreDepRow to value 0
Set parameter PreDual to value 0
Set parameter PrePasses to value -1
Set parameter RINS to value 0
Set parameter Symmetry to value 0
Set parameter PreQLinearize to value 0
Set parameter NonConvex to value 0

Gurobi 12.0.0 (linux64) logging started Thu Aug 14 20:58:31 2025

Set parameter LogFile to value "./res/Gurobi/QCR_QP_Dom/bcc56458.txt"
Set parameter PreCrush to value 0
Set parameter PrePasses to value -1
Set parameter AggFill to value -1
Set parameter NoRelHeurTime to value 0
Set parameter NLPHeur to value 0
Set parameter NonConvex to value 0
Set parameter LPWarmStart to value 0
Set parameter PreDepRow to value 0
Set parameter Symmetry to value 0
Set parameter Presolve to value 0
Gurobi Optimizer version 12.0.0 build v12.0.0rc1 (linux64 - "Debian GNU/Linux 12 (bookworm)")

CPU model: Intel(R) Xeon(R) CPU E5-2650 v3 @ 2.30GHz, instruction set [SSE2|AVX|AVX2]
Thread count: 20 physical cores, 40 logical processors, using up to 20 threads

Non-default parameters:
TimeLimit  1800
LPWarmStart  0
Heuristics  0
RINS  0
NLPHeur  0
Symmetry  0
Aggregate  0
PreDual  0
NonConvex  0
PreDepRow  0
PreQLinearize  0
Presolve  0

Optimize a model with 17370 rows, 63 columns and 251802 nonzeros
Model fingerprint: 0xc00c12a6
Model has 1962 quadratic objective terms
Variable types: 0 continuous, 63 integer (63 binary)
Coefficient statistics:
  Matrix range     [1e+00, 1e+00]
  Objective range  [2e+01, 6e+01]
  QObjective range [2e+00, 2e+01]
  Bounds range     [0e+00, 0e+00]
  RHS range        [1e+00, 3e+01]
Variable types: 0 continuous, 63 integer (63 binary)

Root relaxation: objective -9.690001e+02, 146 iterations, 0.09 seconds (0.09 work units)

    Nodes    |    Current Node    |     Objective Bounds      |     Work
 Expl Unexpl |  Obj  Depth IntInf | Incumbent    BestBd   Gap | It/Node Time

     0     0 -969.00015    0   62          - -969.00015      -     -    0s
H    0     0                    -392.0000000 -969.00015   147%     -    0s
H    0     0                    -440.0000000 -969.00015   120%     -    0s
     0     0 -969.00013    0   63 -440.00000 -969.00013   120%     -    0s

Cutting planes:
  MIR: 101
  Zero half: 58

Explored 1 nodes (348 simplex iterations) in 1.27 seconds (0.85 work units)
Thread count was 20 (of 40 available processors)

Solution count 2: -440 -392 
No other solutions better than -440

Optimal solution found (tolerance 1.00e-04)
Best objective -4.400000000000e+02, best bound -4.400000000000e+02, gap 0.0000%

User-callback calls 590, time in user-callback 0.00 sec
